Minimize
 obj: - 19 x_0_0 - 17 x_1_0 - 15 x_2_0 - 17 x_3_0 - 15 x_4_0 - 18 x_5_0 

Subject To 
 knapsack_0: + 7 x_0_0 + 1 x_1_0 + 6 x_2_0 + 7 x_3_0 + 5 x_4_0 + 3 x_5_0 
  <= 10.0

Bounds

Binary
 x_0_0 x_1_0 x_2_0 x_3_0 x_4_0 x_5_0
General

End